53 2 2 53 2 53 2 2 2 2 2 2 53 53 2 2 53 2 53 53 2 53 53 2 53 53 2 53 2 53 2 2 53 2 53 53 53 53 53 53 2 53 53 53 2 53 2 2 2 53 53 2 2 2 2 2 2 2 53 2 53 53 2 2 2 53 53 53 53 53 53 53 2 2 2 53 2 2 53 2 53 2 2 2 2 2 2 2 2 53 53 53 53 53 53 53 53 2 2 2 53 53 53 2 2 53 53 2 2 2 2 53 2 2 53 2 2 53 53 2 53 2 53 2 53 2 53 2 2 53 2 2 53 53 2 53 53 53 53 53 53 53 2 53 53 2 53 53 53 2 53 2 2 2 2 2 2 53 2 2 53 53 2 2 2 2 53 53 53 2 2 2 53 53 53 2 53 53 53 2 53 2 53 2 2 53 2 2 53 2 2 2 53 53 2 2 53 53 53 53 53 2 53 2 53 53 2 2 2 53 2 53 53 53 53 53 53 53 53 2 2 53 2 53 2 2 53 2 53 53 53 2 53 2 2 2 53 2 2 53 53 2 53 2 2 2 53 53 2 2 53 2 53 53 53 2 53 53 2 2 2 53 2 53 53 2 53 53 2 53 2 53 53 53 53 53 2 2 2 2 2 53 2 53 2 53 53 53 2 53 53 2 2 53 53 2 53 2 53 53 53 53 2 53 53 53 2 53 53 53 53 53 2 53 53 53 2 2 2 53 2 2 53 2 53 53 2 53 53 53 2 53 53 53 2 2 2 2 53 2 53 2 53 2 53 2 53 53 53 53 2 53 53 2 53 53 53 2 2 2 53 2 53 2 53 53 2 2 2 53 2 53 53 53 53 2 2 2 2 53 2 2 2 53 2 53 2 53 53 2 2 53 53 53 53 2 53 2 2 53 53 2 2 53 2 2 53 2 2 53 53 2 2 53 2 2 2 2 2 2 53 2 53 2 53 2 2 2 2 53 53 2 53 2 53 53 2 2 53 2 2 2 53 2 53 53 2 2 53 2 2 2 2 53 2 2 53 53 2 2 2 2 2 53 2 53 53 2 53 2 2 53 53 53 53 2 2 2 2 2 2 2 2 53 53 53 53 53 2 53 53 2 53 53 53 53 2 2 53 53 53 2 53 2 53 2 2 2 2 53 2 53 53 2 2 53 53 53 2 53 2 53 53 2 2 53 53 2 53 53 53 2 53 2 2 2 53 53 2 53 2 2 2 53 53 2 2 2 53 2 2 2 53 53 2 53 2 53 53 2 2 53 2 53 53 53 2 2 2 2 2 2 53 2 53 2 53 2 2 2 2 2 2 2 2 2 53 2 2 53 2 2 2 53 2 53 2 2 2 2 2 2 2 53 2 53 53 53 53 2 2 2 2 2 2 2 53 53 53 53 2 53 53 2 2 53 2 2 53 2 2 2 2 2 53 2 2 53 2 53 53 2 53 53 2 53 2 53 53 53 2 53 2 2 2 53 53 2 53 53 2 2 53 2 2 2 2 2 53 2 2 2 2 53 2 53 53 2 2 2 53 53 53 53 53 53 2 2 53 2 53 53 2 2 53 2 53 2 53 2 2 53 53 53 2 53 2 53 53 2 53 2 53 53 53 2 2 2 53 2 2 2 53 2 53 53 2 2 53 53 2 53 2 53 2 53 2 2 2 53 53 2 53 2 53 53 53 53 53 2 53 53 2 53 53 53 2 53 53 53 53 2 2 53 53 53 2 2 53 53 53 2 53 53 53 2 2 2 53 53 2 53 2 2 2 53 2 2 2 53 53 53 53 53 53 53 2 53 53 2 2 2 2 53 53 53 53 53 53 53 2 53 2 2 2 2 53 2 2 2 53 53 53 53 2 2 2 53 2 53 53 2 53 53 2 53 53 53 2 2 2 53 2 2 53 2 2 53 2 2 53 53 53 2 2 2 53 2 53 53 53 2 53 53 53 53 2 2 53 2 53 53 53 53 2 53 53 2 2 53 53 53 2 2 53 53 2 2 53 53 53 53 53 53 2 53 2 2 53 53 2 2 53 2 53 53 53 2 53 53 53 2 2 2 53 53 53 53 2 2 53 53 53 2 2 53 53 53 53 53 2 2 53 53 2 53 2 53 53 2 2 53 2 2 53 53 53 2 53 53 2 2 53 2 2 53 53 2 2 53 53 53 53 2 2 53 53 53 2 53 53 2 2 53 2 53 53 53 53 2 53 53 2 2 53 2 53 53 2 2 2 53 53 53 2 53 2 53 2 2 